c Random generated cnf formula, satisfiable: false
p cnf 10 50
6 3 2 0
10 -5 -4 0
-8 5 1 0
-7 -10 2 0
-1 5 -8 0
-1 5 7 0
-9 6 -8 0
8 3 -5 0
-3 5 -2 0
-2 -8 -10 0
-1 -5 10 0
4 8 1 0
1 -5 -8 0
1 9 4 0
4 -5 6 0
-5 9 -1 0
3 -4 -1 0
-4 6 5 0
5 8 7 0
9 -2 -5 0
7 -1 -3 0
7 3 4 0
-7 -1 -8 0
-10 1 -7 0
10 9 1 0
8 9 -10 0
6 -10 4 0
6 7 5 0
-7 -4 10 0
-8 -3 6 0
-7 3 1 0
-4 3 -8 0
1 -4 9 0
-8 7 -4 0
8 2 9 0
-1 -5 4 0
8 -1 6 0
1 4 9 0
4 5 1 0
-4 -8 3 0
5 -1 8 0
2 -1 -10 0
-5 8 1 0
-9 -10 -6 0
2 -3 -9 0
7 5 -10 0
-10 3 5 0
3 -7 2 0
6 9 2 0
-5 -9 4 0
